(set-option :produce-models true); benchmark generated from python API
(set-info :status unknown)
(declare-fun l_1_0_9 () Real)
(declare-fun l_1_0_8 () Real)
(declare-fun l_1_0_6 () Real)
(declare-fun l_1_0_3 () Real)
(declare-fun l_1_0_2 () Real)
(declare-fun l_1_0_15 () Real)
(declare-fun l_1_0_14 () Real)
(declare-fun l_1_0_11 () Real)
(declare-fun l_1_0_1 () Real)
(declare-fun _a_0_ () Real)
(declare-fun l_1_0_5 () Real)
(declare-fun l_1_0_19 () Real)
(declare-fun l_1_0_17 () Real)
(declare-fun l_1_0_18 () Real)
(declare-fun l_1_0_16 () Real)
(declare-fun l_1_0_12 () Real)
(declare-fun _a_1_ () Real)
(declare-fun _a_2_ () Real)
(declare-fun l_1_0_20 () Real)
(declare-fun _a_3_ () Real)
(declare-fun l_1_0_7 () Real)
(declare-fun l_1_0_13 () Real)
(declare-fun l_1_0_10 () Real)
(declare-fun _a_4_ () Real)
(declare-fun l_1_0_4 () Real)
(declare-fun _a_5_ () Real)
(declare-fun l_1_1_9 () Real)
(declare-fun l_1_1_8 () Real)
(declare-fun l_1_1_7 () Real)
(declare-fun l_1_1_5 () Real)
(declare-fun l_1_1_15 () Real)
(declare-fun l_1_1_14 () Real)
(declare-fun l_1_1_13 () Real)
(declare-fun l_1_1_11 () Real)
(declare-fun l_1_1_10 () Real)
(declare-fun l_1_1_1 () Real)
(declare-fun l_1_1_6 () Real)
(declare-fun l_1_1_4 () Real)
(declare-fun l_1_1_3 () Real)
(declare-fun l_1_1_2 () Real)
(declare-fun l_1_1_12 () Real)
(declare-fun l_1_1_16 () Real)
(declare-fun l_1_1_18 () Real)
(declare-fun l_1_1_19 () Real)
(declare-fun l_1_1_17 () Real)
(declare-fun l_1_1_20 () Real)
(declare-fun l_1_2_9 () Real)
(declare-fun l_1_2_6 () Real)
(declare-fun l_1_2_5 () Real)
(declare-fun l_1_2_3 () Real)
(declare-fun l_1_2_2 () Real)
(declare-fun l_1_2_15 () Real)
(declare-fun l_1_2_14 () Real)
(declare-fun l_1_2_13 () Real)
(declare-fun l_1_2_11 () Real)
(declare-fun l_1_2_1 () Real)
(declare-fun l_1_2_8 () Real)
(declare-fun l_1_2_7 () Real)
(declare-fun l_1_2_4 () Real)
(declare-fun l_1_2_12 () Real)
(declare-fun l_1_2_10 () Real)
(declare-fun l_1_2_20 () Real)
(declare-fun l_1_2_19 () Real)
(declare-fun l_1_2_18 () Real)
(declare-fun l_1_2_17 () Real)
(declare-fun l_1_2_16 () Real)
(assert
 (let ((?x52 (* (/ 9801.0 10000.0) l_1_0_6)))
 (let ((?x55 (* (/ 99.0 100.0) l_1_0_2)))
 (let ((?x58 (* l_1_0_15 l_1_0_15)))
 (let ((?x1747 (- (+ (+ _a_0_ (* (/ 99.0 100.0) l_1_0_1)) (* (/ 99.0 100.0) l_1_0_11)) l_1_0_14)))
 (let ((?x1742 (- (- (- (- (+ (- ?x1747 ?x58) ?x55) l_1_0_3) ?x52) l_1_0_8) l_1_0_9)))
 (= ?x1742 0.0)))))))
(assert
 (let ((?x1636 (* (/ 2.0 5.0) l_1_0_5)))
 (let ((?x1640 (- (- _a_1_ (* (/ 2.0 5.0) l_1_0_12)) (* (* 2.0 l_1_0_16) l_1_0_18))))
 (= (- (- ?x1640 (* (* 2.0 l_1_0_17) l_1_0_19)) ?x1636) 0.0))))
(assert
 (let ((?x1338 (* (/ 99.0 25.0) l_1_0_6)))
 (let ((?x1462 (* 2.0 l_1_0_2)))
 (let ((?x1257 (- (- (- _a_2_ (* 2.0 l_1_0_1)) (* 2.0 l_1_0_11)) (* (* 2.0 l_1_0_15) l_1_0_18))))
 (= (+ (- ?x1257 ?x1462) ?x1338) 0.0)))))
(assert
 (let ((?x1396 (* (/ 299.0 50.0) l_1_0_6)))
 (let ((?x1435 (* l_1_0_20 l_1_0_20)))
 (let ((?x1398 (* l_1_0_19 l_1_0_19)))
 (let ((?x1433 (- (- (+ (+ _a_3_ l_1_0_1) l_1_0_11) (* l_1_0_18 l_1_0_18)) ?x1398)))
 (= (- (- (+ ?x1433 l_1_0_2) ?x1435) ?x1396) 0.0))))))
(assert
 (let ((?x1357 (* (/ 1.0 5.0) l_1_0_7)))
 (let ((?x1355 (* (/ 99.0 500.0) l_1_0_5)))
 (let ((?x1351 (* (/ 1.0 5.0) l_1_0_13)))
 (let ((?x1354 (- (- (+ (- _a_4_ (* (/ 1.0 5.0) l_1_0_10)) (* (/ 99.0 500.0) l_1_0_12)) ?x1351) (* (* 2.0 l_1_0_15) l_1_0_16))))
 (= (- (+ ?x1354 ?x1355) ?x1357) 0.0))))))
(assert
 (let ((?x1237 (* (/ 99.0 100.0) l_1_0_5)))
 (let ((?x1236 (* (/ 1.0 25.0) l_1_0_4)))
 (let ((?x1233 (* l_1_0_17 l_1_0_17)))
 (let ((?x1231 (* l_1_0_16 l_1_0_16)))
 (let ((?x1232 (- (+ (- (+ _a_5_ l_1_0_10) (* (/ 99.0 100.0) l_1_0_12)) l_1_0_13) ?x1231)))
 (= (+ (- (- (- ?x1232 ?x1233) ?x1236) ?x1237) l_1_0_7) 0.0)))))))
(assert
 (= (* (/ 2.0 5.0) l_1_0_4) 0.0))
(assert
 (= (- l_1_0_4) 0.0))
(assert
 (= (+ (* 2.0 l_1_0_12) (* 2.0 l_1_0_5)) 0.0))
(assert
 (= (+ (* (/ 1.0 5.0) l_1_0_12) (* (/ 1.0 5.0) l_1_0_5)) 0.0))
(assert
 (= (- (- l_1_0_12) l_1_0_5) 0.0))
(assert
 (= (* 4.0 l_1_0_6) 0.0))
(assert
 (= (- l_1_0_6) 0.0))
(assert
 (>= l_1_0_1 0.0))
(assert
 (>= l_1_0_2 0.0))
(assert
 (>= l_1_0_3 0.0))
(assert
 (>= l_1_0_4 0.0))
(assert
 (>= l_1_0_5 0.0))
(assert
 (>= l_1_0_6 0.0))
(assert
 (>= l_1_0_7 0.0))
(assert
 (>= l_1_0_8 0.0))
(assert
 (>= l_1_0_9 0.0))
(assert
 (>= l_1_0_10 0.0))
(assert
 (>= l_1_0_11 0.0))
(assert
 (>= l_1_0_12 0.0))
(assert
 (>= l_1_0_13 0.0))
(assert
 (>= l_1_0_14 0.0))
(assert
 (>= l_1_0_15 0.0))
(assert
 (>= l_1_0_17 0.0))
(assert
 (>= l_1_0_20 0.0))
(assert
 (let ((?x39 (* 2.0 l_1_1_9)))
 (let ((?x669 (* 2.0 l_1_1_8)))
 (let ((?x1012 (* 2.0 l_1_1_7)))
 (let ((?x660 (* l_1_1_15 l_1_1_15)))
 (let ((?x658 (* 4.0 l_1_1_13)))
 (let ((?x729 (* _a_0_ l_1_1_4)))
 (let ((?x1034 (+ (- (* (- _a_0_) l_1_1_12) (* _a_0_ l_1_1_2)) (* (* 2.0 _a_0_) l_1_1_3))))
 (let ((?x1038 (- (+ (- ?x1034 ?x729) (* (* 2.0 _a_0_) l_1_1_6)) (* (* l_1_1_1 _a_0_) _a_0_))))
 (let ((?x662 (- (- (- (- (- (- ?x1038 l_1_1_10) l_1_1_11) ?x658) l_1_1_14) ?x660) l_1_1_5)))
 (= (+ (+ (+ (+ ?x662 ?x1012) ?x669) ?x39) 2.0) 0.0)))))))))))
(assert
 (let ((?x794 (* _a_4_ l_1_1_4)))
 (let ((?x787 (* _a_4_ l_1_1_2)))
 (let ((?x783 (* _a_4_ l_1_1_12)))
 (let ((?x793 (+ (- (- (* (* (* (- 2.0) _a_0_) _a_4_) l_1_1_1) ?x783) ?x787) (* (* 2.0 _a_4_) l_1_1_3))))
 (let ((?x730 (- (+ (- ?x793 ?x794) (* (* 2.0 _a_4_) l_1_1_6)) (* (* 2.0 l_1_1_15) l_1_1_16))))
 (= (- ?x730 1.0) 0.0)))))))
(assert
 (let ((?x603 (* _a_2_ l_1_1_4)))
 (let ((?x503 (* _a_2_ l_1_1_2)))
 (let ((?x597 (* _a_2_ l_1_1_12)))
 (let ((?x602 (+ (- (- (* (* (* (- 2.0) _a_0_) _a_2_) l_1_1_1) ?x597) ?x503) (* (* 2.0 _a_2_) l_1_1_3))))
 (let ((?x607 (- (+ (- ?x602 ?x603) (* (* 2.0 _a_2_) l_1_1_6)) (* (* 2.0 l_1_1_15) l_1_1_18))))
 (= (- ?x607 2.0) 0.0)))))))
(assert
 (let ((?x447 (+ (* (* 2.0 _a_0_) _a_1_) (* (* 2.0 _a_2_) _a_4_))))
 (let ((?x473 (* _a_1_ l_1_1_4)))
 (let ((?x472 (+ (- (* (- _a_1_) l_1_1_12) (* _a_1_ l_1_1_2)) (* (* 2.0 _a_1_) l_1_1_3))))
 (let ((?x450 (- (+ (- ?x472 ?x473) (* (* 2.0 _a_1_) l_1_1_6)) (* l_1_1_1 ?x447))))
 (let ((?x441 (- (- ?x450 (* (* 2.0 l_1_1_16) l_1_1_18)) (* (* 2.0 l_1_1_17) l_1_1_19))))
 (= ?x441 0.0)))))))
(assert
 (let ((?x358 (* l_1_1_20 l_1_1_20)))
 (let ((?x356 (* l_1_1_19 l_1_1_19)))
 (let ((?x354 (* l_1_1_18 l_1_1_18)))
 (let ((?x658 (* 4.0 l_1_1_13)))
 (let ((?x242 (* _a_3_ l_1_1_4)))
 (let ((?x352 (- (- (- (* (- _a_3_) l_1_1_12) (* _a_3_ l_1_1_2)) ?x242) (* l_1_1_1 (+ (* (* 2.0 _a_0_) _a_3_) (* _a_2_ _a_2_))))))
 (let ((?x305 (- (- (- (- (+ ?x352 ?x658) ?x354) ?x356) ?x358) (* l_1_1_3 (- _a_0_ (* 2.0 _a_3_))))))
 (let ((?x309 (- (- (- ?x305 (* l_1_1_6 (- _a_0_ (* 2.0 _a_3_)))) l_1_1_7) l_1_1_8)))
 (= (- ?x309 l_1_1_9) 0.0))))))))))
(assert
 (let ((?x72 (* l_1_1_17 l_1_1_17)))
 (let ((?x69 (* l_1_1_16 l_1_1_16)))
 (let ((?x658 (* 4.0 l_1_1_13)))
 (let ((?x113 (* _a_5_ l_1_1_4)))
 (let ((?x67 (- (- (- (* (- _a_5_) l_1_1_12) (* _a_5_ l_1_1_2)) ?x113) (* l_1_1_1 (+ (* (* 2.0 _a_0_) _a_5_) (* _a_4_ _a_4_))))))
 (let ((?x924 (- (- (- (+ ?x67 ?x658) ?x69) ?x72) (* l_1_1_3 (- _a_0_ (* 2.0 _a_5_))))))
 (let ((?x126 (- (- (- ?x924 (* l_1_1_6 (- _a_0_ (* 2.0 _a_5_)))) l_1_1_7) l_1_1_8)))
 (= (- ?x126 l_1_1_9) 0.0)))))))))
(assert
 (let ((?x1696 (* 2.0 l_1_1_13)))
 (let ((?x1680 (* _a_1_ _a_1_)))
 (let ((?x1695 (+ ?x1680 (* (* 2.0 _a_3_) _a_5_))))
 (let ((?x1688 (- (- (* (- l_1_1_1) ?x1695) ?x1696) (* l_1_1_3 (+ _a_3_ _a_5_)))))
 (= (- ?x1688 (* l_1_1_6 (+ _a_3_ _a_5_))) 0.0))))))
(assert
 (let ((?x1565 (+ (* (* 2.0 _a_1_) _a_2_) (* (* 2.0 _a_3_) _a_4_))))
 (let ((?x517 (- (- (* (- _a_4_) l_1_1_3) (* _a_4_ l_1_1_6)) (* l_1_1_1 ?x1565))))
 (= ?x517 0.0))))
(assert
 (let ((?x11 (* _a_1_ l_1_1_6)))
 (let ((?x17 (* _a_1_ l_1_1_3)))
 (= (- (- (* (* (* (- 2.0) _a_1_) _a_3_) l_1_1_1) ?x17) ?x11) 0.0))))
(assert
 (let ((?x174 (+ (* (* 2.0 _a_1_) _a_4_) (* (* 2.0 _a_2_) _a_5_))))
 (let ((?x169 (- (- (* (- _a_2_) l_1_1_3) (* _a_2_ l_1_1_6)) (* l_1_1_1 ?x174))))
 (= ?x169 0.0))))
(assert
 (let ((?x11 (* _a_1_ l_1_1_6)))
 (let ((?x17 (* _a_1_ l_1_1_3)))
 (= (- (- (* (* (* (- 2.0) _a_1_) _a_5_) l_1_1_1) ?x17) ?x11) 0.0))))
(assert
 (let ((?x551 (* _a_2_ l_1_1_6)))
 (let ((?x544 (* _a_2_ l_1_1_3)))
 (= (- (- (* (* (* (- 2.0) _a_2_) _a_3_) l_1_1_1) ?x544) ?x551) 0.0))))
(assert
 (let ((?x933 (- (- (* (- _a_3_) l_1_1_3) (* _a_3_ l_1_1_6)) (* (* l_1_1_1 _a_3_) _a_3_))))
 (= (- ?x933 l_1_1_13) 0.0)))
(assert
 (let ((?x677 (* _a_4_ l_1_1_6)))
 (let ((?x668 (* _a_4_ l_1_1_3)))
 (= (- (- (* (* (* (- 2.0) _a_4_) _a_5_) l_1_1_1) ?x668) ?x677) 0.0))))
(assert
 (let ((?x629 (- (- (* (- _a_5_) l_1_1_3) (* _a_5_ l_1_1_6)) (* (* l_1_1_1 _a_5_) _a_5_))))
 (= (- ?x629 l_1_1_13) 0.0)))
(assert
 (>= l_1_1_1 0.0))
(assert
 (>= l_1_1_2 0.0))
(assert
 (>= l_1_1_3 0.0))
(assert
 (>= l_1_1_4 0.0))
(assert
 (>= l_1_1_5 0.0))
(assert
 (>= l_1_1_6 0.0))
(assert
 (>= l_1_1_7 0.0))
(assert
 (>= l_1_1_8 0.0))
(assert
 (>= l_1_1_9 0.0))
(assert
 (>= l_1_1_10 0.0))
(assert
 (>= l_1_1_11 0.0))
(assert
 (>= l_1_1_12 0.0))
(assert
 (>= l_1_1_13 0.0))
(assert
 (>= l_1_1_14 0.0))
(assert
 (>= l_1_1_15 0.0))
(assert
 (>= l_1_1_17 0.0))
(assert
 (>= l_1_1_20 0.0))
(assert
 (let ((?x1027 (* 2.0 l_1_2_6)))
 (let ((?x1023 (* 4.0 l_1_2_3)))
 (let ((?x1021 (* 2.0 l_1_2_2)))
 (let ((?x1019 (* l_1_2_15 l_1_2_15)))
 (let ((?x1625 (* 2.0 l_1_2_11)))
 (let ((?x1607 (* _a_0_ l_1_2_8)))
 (let ((?x1592 (* _a_0_ l_1_2_7)))
 (let ((?x699 (* _a_0_ l_1_2_4)))
 (let ((?x703 (- (* (* (- 2.0) _a_0_) l_1_2_10) (* (* 2.0 _a_0_) l_1_2_12))))
 (let ((?x1624 (- (+ (- (- (- ?x703 ?x699) ?x1592) ?x1607) _a_0_) (* (* l_1_2_1 _a_0_) _a_0_))))
 (let ((?x1028 (- (- (- (- (- (- ?x1624 ?x1625) l_1_2_13) l_1_2_14) ?x1019) ?x1021) ?x1023)))
 (= (- (- (- ?x1028 l_1_2_5) ?x1027) l_1_2_9) 0.0)))))))))))))
(assert
 (let ((?x813 (* (/ 9.0 25.0) _a_5_)))
 (let ((?x295 (* (/ 1.0 4.0) _a_3_)))
 (let ((?x298 (* _a_3_ l_1_2_12)))
 (let ((?x808 (+ (+ (+ (+ (* (- (/ 3.0 10.0)) _a_1_) (* _a_3_ l_1_2_10)) ?x298) ?x295) ?x813)))
 (= (- (- ?x808 (* (* l_1_2_1 _a_3_) _a_3_)) l_1_2_3) 0.0))))))
(assert
 (let ((?x1101 (* 2.0 l_1_2_3)))
 (let ((?x1707 (- (- (+ (* (- (/ 9.0 100.0)) _a_1_) (* (/ 2.0 5.0) _a_3_)) (* (/ 9.0 25.0) _a_5_)) (* l_1_2_1 (+ (* _a_1_ _a_1_) (* (* 2.0 _a_3_) _a_5_))))))
 (let ((?x1712 (- (- ?x1707 (* l_1_2_10 (- (- _a_3_) _a_5_))) (* l_1_2_12 (- (- _a_3_) _a_5_)))))
 (= (- ?x1712 ?x1101) 0.0)))))
(assert
 (let ((?x338 (* (/ 9.0 100.0) _a_5_)))
 (let ((?x1651 (* _a_5_ l_1_2_12)))
 (let ((?x337 (+ (+ (+ (* (/ 3.0 25.0) _a_1_) (* (/ 4.0 25.0) _a_3_)) (* _a_5_ l_1_2_10)) ?x1651)))
 (= (- (- (+ ?x337 ?x338) (* (* l_1_2_1 _a_5_) _a_5_)) l_1_2_3) 0.0)))))
(assert
 (let ((?x1023 (* 4.0 l_1_2_3)))
 (let ((?x641 (* l_1_2_20 l_1_2_20)))
 (let ((?x640 (* l_1_2_19 l_1_2_19)))
 (let ((?x635 (* l_1_2_18 l_1_2_18)))
 (let ((?x492 (* (/ 3.0 5.0) _a_4_)))
 (let ((?x490 (* _a_3_ l_1_2_8)))
 (let ((?x480 (* _a_3_ l_1_2_7)))
 (let ((?x493 (- (- (- (- (* (/ 1.0 2.0) _a_2_) (* _a_3_ l_1_2_4)) ?x480) ?x490) ?x492)))
 (let ((?x1251 (- ?x493 (* l_1_2_1 (+ (* (* 2.0 _a_0_) _a_3_) (* _a_2_ _a_2_))))))
 (let ((?x1734 (+ (- ?x1251 (* l_1_2_10 (+ (- _a_0_) (* 2.0 _a_3_)))) l_1_2_11)))
 (let ((?x646 (- (- (- ?x1734 (* l_1_2_12 (+ (- _a_0_) (* 2.0 _a_3_)))) ?x635) ?x640)))
 (= (+ (+ (- (+ ?x646 l_1_2_2) ?x641) ?x1023) l_1_2_6) 0.0)))))))))))))
(assert
 (let ((?x1023 (* 4.0 l_1_2_3)))
 (let ((?x375 (* l_1_2_17 l_1_2_17)))
 (let ((?x378 (* l_1_2_16 l_1_2_16)))
 (let ((?x738 (* _a_5_ l_1_2_8)))
 (let ((?x1632 (* _a_5_ l_1_2_7)))
 (let ((?x737 (- (- (+ (* (/ 2.0 5.0) _a_2_) (* (/ 3.0 10.0) _a_4_)) (* _a_5_ l_1_2_4)) ?x1632)))
 (let ((?x749 (- (- ?x737 ?x738) (* l_1_2_1 (+ (* (* 2.0 _a_0_) _a_5_) (* _a_4_ _a_4_))))))
 (let ((?x879 (+ (- ?x749 (* l_1_2_10 (+ (- _a_0_) (* 2.0 _a_5_)))) l_1_2_11)))
 (let ((?x376 (- (- (- ?x879 (* l_1_2_12 (+ (- _a_0_) (* 2.0 _a_5_)))) ?x378) ?x375)))
 (= (+ (+ (+ ?x376 l_1_2_2) ?x1023) l_1_2_6) 0.0)))))))))))
(assert
 (let ((?x447 (+ (* (* 2.0 _a_0_) _a_1_) (* (* 2.0 _a_2_) _a_4_))))
 (let ((?x777 (* _a_1_ l_1_2_8)))
 (let ((?x366 (* _a_1_ l_1_2_7)))
 (let ((?x364 (* _a_1_ l_1_2_4)))
 (let ((?x1409 (- (* (* (- 2.0) _a_1_) l_1_2_10) (* (* 2.0 _a_1_) l_1_2_12))))
 (let ((?x962 (- (- (- (- (- ?x1409 ?x364) ?x366) ?x777) (* l_1_2_1 ?x447)) (* (* 2.0 l_1_2_16) l_1_2_18))))
 (= (- ?x962 (* (* 2.0 l_1_2_17) l_1_2_19)) 0.0))))))))
(assert
 (let ((?x417 (* _a_2_ l_1_2_8)))
 (let ((?x516 (* _a_2_ l_1_2_7)))
 (let ((?x1194 (* _a_2_ l_1_2_4)))
 (let ((?x982 (- (* (* (* (- 2.0) _a_0_) _a_2_) l_1_2_1) (* (* 2.0 _a_2_) l_1_2_10))))
 (let ((?x418 (- (- (- (- ?x982 (* (* 2.0 _a_2_) l_1_2_12)) ?x1194) ?x516) ?x417)))
 (= (- ?x418 (* (* 2.0 l_1_2_15) l_1_2_18)) 0.0)))))))
(assert
 (let ((?x805 (* _a_4_ l_1_2_8)))
 (let ((?x795 (* _a_4_ l_1_2_7)))
 (let ((?x1657 (* _a_4_ l_1_2_4)))
 (let ((?x1025 (- (* (* (* (- 2.0) _a_0_) _a_4_) l_1_2_1) (* (* 2.0 _a_4_) l_1_2_10))))
 (let ((?x806 (- (- (- (- ?x1025 (* (* 2.0 _a_4_) l_1_2_12)) ?x1657) ?x795) ?x805)))
 (= (- ?x806 (* (* 2.0 l_1_2_15) l_1_2_16)) 0.0)))))))
(assert
 (let ((?x1565 (+ (* (* 2.0 _a_1_) _a_2_) (* (* 2.0 _a_3_) _a_4_))))
 (let ((?x1740 (- (+ (* _a_4_ l_1_2_10) (* _a_4_ l_1_2_12)) (* l_1_2_1 ?x1565))))
 (= ?x1740 0.0))))
(assert
 (let ((?x1007 (* _a_1_ l_1_2_12)))
 (let ((?x1008 (* _a_1_ l_1_2_10)))
 (= (+ (+ (* (* (* (- 2.0) _a_1_) _a_3_) l_1_2_1) ?x1008) ?x1007) 0.0))))
(assert
 (let ((?x174 (+ (* (* 2.0 _a_1_) _a_4_) (* (* 2.0 _a_2_) _a_5_))))
 (let ((?x1248 (* _a_2_ l_1_2_12)))
 (let ((?x164 (* _a_2_ l_1_2_10)))
 (let ((?x1152 (+ ?x164 ?x1248)))
 (= (- ?x1152 (* l_1_2_1 ?x174)) 0.0))))))
(assert
 (let ((?x1007 (* _a_1_ l_1_2_12)))
 (let ((?x1008 (* _a_1_ l_1_2_10)))
 (= (+ (+ (* (* (* (- 2.0) _a_1_) _a_5_) l_1_2_1) ?x1008) ?x1007) 0.0))))
(assert
 (let ((?x1248 (* _a_2_ l_1_2_12)))
 (let ((?x164 (* _a_2_ l_1_2_10)))
 (= (+ (+ (* (* (* (- 2.0) _a_2_) _a_3_) l_1_2_1) ?x164) ?x1248) 0.0))))
(assert
 (let ((?x135 (* _a_4_ l_1_2_12)))
 (let ((?x1602 (* _a_4_ l_1_2_10)))
 (= (+ (+ (* (* (* (- 2.0) _a_4_) _a_5_) l_1_2_1) ?x1602) ?x135) 0.0))))
(assert
 (>= l_1_2_1 0.0))
(assert
 (>= l_1_2_2 0.0))
(assert
 (>= l_1_2_3 0.0))
(assert
 (>= l_1_2_4 0.0))
(assert
 (>= l_1_2_5 0.0))
(assert
 (>= l_1_2_6 0.0))
(assert
 (>= l_1_2_7 0.0))
(assert
 (>= l_1_2_8 0.0))
(assert
 (>= l_1_2_9 0.0))
(assert
 (>= l_1_2_10 0.0))
(assert
 (>= l_1_2_11 0.0))
(assert
 (>= l_1_2_12 0.0))
(assert
 (>= l_1_2_13 0.0))
(assert
 (>= l_1_2_14 0.0))
(assert
 (>= l_1_2_15 0.0))
(assert
 (>= l_1_2_17 0.0))
(assert
 (>= l_1_2_20 0.0))
(check-sat)
(get-model)